param set_len = 16;
param target = 35509742;
param values := [0] 6137513 [1] 6503438 [2] 3794845 [3] 6280612 [4] 3834492 [5] 26410 [6] 6843043 [7] 6674805 [8] 311178 [9] 2002333 [10] 2420572 [11] 5102926 [12] 7087078 [13] 7934137 [14] 4513040 [15] 5936449 ;
